,x,y,z,disp_x,stress_xx,strain_xx
0,0.125,0.125,0.125,4.0619635716778,0.00029930023208806975,0.00017825300425267088
1,0.375,0.125,0.125,4.06212825930336,0.0010748446574410893,0.0007204972244914121
2,0.625,0.125,0.125,4.0623249378231705,0.00191882681144833,0.0012959512940282636
3,0.875,0.125,0.125,4.062778220536229,0.0028727060322575296,0.0019435338632880494
4,1.125,0.125,0.125,4.063299608101379,0.003978286995071864,0.0026912660232363272
5,1.375,0.125,0.125,4.064127866824824,0.005298616639982282,0.003583804803495516
6,1.625,0.125,0.125,4.065096803051975,0.006856073108662739,0.004636544015305555
7,1.875,0.125,0.125,4.066452954109277,0.008718001455688096,0.005895042180705579
8,2.125,0.125,0.125,4.068052933949187,0.010904571626036285,0.0073731837084933805
9,2.375,0.125,0.125,4.070150260325753,0.013478687602873872,0.009113292839085352
10,2.625,0.125,0.125,4.07262275554037,0.01646209768300145,0.011130238388892044
11,2.875,0.125,0.125,4.075731393488281,0.019911981774755727,0.013462521036156305
12,3.125,0.125,0.125,4.079373286970574,0.023849306228528565,0.01612442050527685
13,3.375,0.125,0.125,4.083816561137282,0.028326235866776014,0.019151091690233102
14,3.625,0.125,0.125,4.088975922340184,0.033358895986839304,0.022553497890257068
15,3.875,0.125,0.125,4.095124974454684,0.038992850752385205,0.026362345636627538
16,4.125,0.125,0.125,4.102193754149763,0.04523579304091236,0.03058285834665697
17,4.375,0.125,0.125,4.110458450871148,0.052120141412799914,0.035236845687010465
18,4.625,0.125,0.125,4.119859930554037,0.0596432054148471,0.040322470316868975
19,4.875,0.125,0.125,4.130673407120738,0.06781124490710873,0.04584383356202126
20,5.125,0.125,0.125,4.1428416572389555,0.07661247679923626,0.05179290828211314
21,5.375,0.125,0.125,4.156635793994307,0.08600657722535329,0.05814227750138623
22,5.625,0.125,0.125,4.171984673448932,0.09598025293427973,0.0648828545997322
23,5.875,0.125,0.125,4.189154760767667,0.10641792053024574,0.07193633342845751
24,6.125,0.125,0.125,4.208035473968306,0.1173233329902687,0.07930512408948243
25,6.375,0.125,0.125,4.228894388331344,0.1284679662147896,0.08683459461675525
26,6.625,0.125,0.125,4.2515432590199635,0.13990735513956237,0.09456214704103072
27,6.875,0.125,0.125,4.276268312223699,0.15125372856444771,0.10222558425682715
28,7.125,0.125,0.125,4.30274982563234,0.16266804541986066,0.10993356965376933
29,7.375,0.125,0.125,4.33132837873365,0.17355292454296234,0.11728239290863351
30,7.625,0.125,0.125,4.361482045020776,0.18424197877269607,0.1244974643319321
31,7.875,0.125,0.125,4.3936641916087655,0.1938884088203361,0.13100674480601615
32,8.125,0.125,0.125,4.427839297795798,0.2086969439402025,0.14100196660006614
33,8.375,0.125,0.125,4.463721879317379,0.2163137513250952,0.14613706185143083
34,8.625,0.125,0.125,4.500974389217005,0.22294974991135455,0.15060809777431516
35,8.875,0.125,0.125,4.539081308476378,0.22780038697124497,0.15387186934821706
36,9.125,0.125,0.125,4.57795293487151,0.23124024549127423,0.1561817529381737
37,9.375,0.125,0.125,4.6172008074500885,0.23271591199039124,0.1571641908163599
38,9.625,0.125,0.125,4.656548577508795,0.2324857491765635,0.15699414045636306
39,9.875,0.125,0.125,4.695695780149044,0.2302335381988261,0.15545830745267852
40,10.125,0.125,0.125,4.734259622833787,0.22616814419219852,0.1526982565640156
41,10.375,0.125,0.125,4.77201098122607,0.22017396045049373,0.14863622350477934
42,10.625,0.125,0.125,4.808528441268313,0.21246750894178773,0.14341891422400344
43,10.875,0.125,0.125,4.8436567510697435,0.20308816893268464,0.13707322105537645
44,11.125,0.125,0.125,4.8769882084092435,0.19229361786034246,0.12977354803065366
45,11.375,0.125,0.125,4.908455179894821,0.18022873033410425,0.12161795358725414
46,11.625,0.125,0.125,4.93769920301564,0.1671992371177129,0.11281314096478634
47,11.875,0.125,0.125,4.964756259040208,0.1534056974128686,0.10349464437101141
48,12.125,0.125,0.125,4.989335762546656,0.13918564681966772,0.09389045564180343
49,12.375,0.125,0.125,5.0115877686111405,0.12475045446949301,0.08414326136272954
50,12.625,0.125,0.125,5.031293027206291,0.11043641726976709,0.07448001943414839
51,12.875,0.125,0.125,5.0487149582013835,0.09643274626940355,0.06502832573579553
52,13.125,0.125,0.125,5.063697996107059,0.08303164113665686,0.055985188139167086
53,13.375,0.125,0.125,5.076603779905089,0.07038547787352861,0.04745325202904205
54,13.625,0.125,0.125,5.087327881019359,0.0586963824878316,0.03956858481185743
55,13.875,0.125,0.125,5.096299565941034,0.04808612570086356,0.032413149375830175
56,14.125,0.125,0.125,5.103455166860938,0.038624559767586046,0.0260336548543445
57,14.375,0.125,0.125,5.1092468507372,0.03042621011590324,0.02050719935019063
58,14.625,0.125,0.125,5.1136492678374825,0.02339863983480082,0.015770956901756117
59,14.875,0.125,0.125,5.117082760676709,0.017678664071342675,0.011917110332393843
60,15.125,0.125,0.125,5.119567831517572,0.01300439099047455,0.008768552103114446
61,15.375,0.125,0.125,5.121435995405256,0.009554570690153606,0.006445788720195633
62,15.625,0.125,0.125,5.122767743724396,0.006924705289722004,0.0046756253539399495
63,15.875,0.125,0.125,5.123757936308449,0.005329541499899517,0.0036028644298231605
64,16.125,0.125,0.125,5.124454521335872,0.0034909809033607762,0.002364647404986542
65,16.375,0.125,0.125,5.125012841043268,0.003221433275546237,0.0021845624912324446
66,16.625,0.125,0.125,5.125544682621518,0.003291779209279649,0.0022328698879594544
67,16.875,0.125,0.125,5.126129439772614,0.0038513127572259304,0.0026103592497510597
68,17.125,0.125,0.125,5.126851134446568,0.004540875470398736,0.0030747489117768367
69,17.375,0.125,0.125,5.1276682344744975,0.005460834961100651,0.003693983724100125
70,17.625,0.125,0.125,5.128698867674404,0.006371284712061416,0.004306242712855957
71,17.875,0.125,0.125,5.12982076572727,0.0073168270836062345,0.00494192787466452
72,18.125,0.125,0.125,5.1311675067285085,0.008187484288973722,0.0055269091952172555
73,18.375,0.125,0.125,5.132579875765922,0.008979695565209047,0.00605908361609564
74,18.625,0.125,0.125,5.13419067988889,0.00969263966931585,0.006537980134575294
75,18.875,0.125,0.125,5.135840523410116,0.010288812876393508,0.0069385072200278675
76,19.125,0.125,0.125,5.137649902551841,0.010835935543901044,0.0073064088023515605
77,19.375,0.125,0.125,5.1394822832926925,0.01127686938909388,0.007603214001181691
78,19.625,0.125,0.125,5.1414390704980555,0.011701712380588302,0.007889699028955421
79,19.875,0.125,0.125,5.143414053014153,0.012045965979553309,0.008122296544417207
80,20.125,0.125,0.125,5.145486900247157,0.012383108085453544,0.008350498010944563
81,20.375,0.125,0.125,5.147576050545448,0.012653058526361245,0.008533634161284498
82,20.625,0.125,0.125,5.149740819075362,0.012888784662448152,0.008693823828201053
83,20.875,0.125,0.125,5.151910608456276,0.01304811620965891,0.008802473916023734
84,21.125,0.125,0.125,5.154130392108898,0.013116247553548753,0.008849480619170125
85,21.375,0.125,0.125,5.1563244543824815,0.01308423506028403,0.008828732764587288
86,21.625,0.125,0.125,5.158534677566926,0.012894428292615482,0.008701267548120617
87,21.875,0.125,0.125,5.160665838273125,0.012585611301498812,0.008493276824163676
88,22.125,0.125,0.125,5.162772903912211,0.012066576960030391,0.008143208307067606
89,22.375,0.125,0.125,5.164729879685368,0.01143381937085636,0.007716282648132289
90,22.625,0.125,0.125,5.166624352159907,0.010568724820547895,0.007132471652828931
91,22.875,0.125,0.125,5.16829032663223,0.009628719019526834,0.006498155176326348
92,23.125,0.125,0.125,5.169868592625495,0.008466997341099172,0.005714246214168384
93,23.375,0.125,0.125,5.171143616573568,0.007298707726358063,0.004926069921215026
94,23.625,0.125,0.125,5.17232885224787,0.00594281661561144,0.004011362539657837
95,23.875,0.125,0.125,5.173147627862729,0.004663850889826507,0.0031487394333931107
96,24.125,0.125,0.125,5.173706054904606,0.001508550928996303,0.0010188629800567117
97,24.375,0.125,0.125,5.173853362856205,0.00024174883676738476,0.00016462457735633151
98,24.625,0.125,0.125,5.173789783110341,-0.0010944485776118184,-0.0007364624585408652
99,24.875,0.125,0.125,5.173487682907877,-0.0022398114296881062,-0.0015087178383248467
100,25.125,0.125,0.125,5.173039077012039,-0.0033872159479596473,-0.0022824582209286515
101,25.375,0.125,0.125,5.172351159159208,-0.004322650094265512,-0.002913179837877422
102,25.625,0.125,0.125,5.171588192689182,-0.00520618704561527,-0.0035090047373973476
103,25.875,0.125,0.125,5.170603291684454,-0.005869631681524985,-0.00395633770060444
104,26.125,0.125,0.125,5.169617519952343,-0.006442401012739609,-0.004342568781869893
105,26.375,0.125,0.125,5.168440278039817,-0.006799454466725237,-0.004583234256306135
106,26.625,0.125,0.125,5.167334861568555,-0.007043392508872394,-0.004747607325012337
107,26.875,0.125,0.125,5.166076015297058,-0.007090004583895983,-0.00477881014221615
108,27.125,0.125,0.125,5.164955470105392,-0.007018889641639344,-0.004730590939707735
109,27.375,0.125,0.125,5.16372107814408,-0.0067843005440048915,-0.0045720706560707924
110,27.625,0.125,0.125,5.162680008693532,-0.006445390681375928,-0.004343195020990009
111,27.875,0.125,0.125,5.1615601270303495,-0.005990922961443355,-0.004036408430926786
112,28.125,0.125,0.125,5.16067238974675,-0.005460680700260861,-0.003678561185913587
113,28.375,0.125,0.125,5.159731229481876,-0.0048712799432728765,-0.0032809147708103836
114,28.625,0.125,0.125,5.159041997112354,-0.004243810546728207,-0.002857660936740114
115,28.875,0.125,0.125,5.1583120252716945,-0.0036132846119400473,-0.002432492471460934
116,29.125,0.125,0.125,5.1578348582881,-0.0029842368326897187,-0.002008377258360561
117,29.375,0.125,0.125,5.157316336723901,-0.0023984833549690037,-0.0016136336963319398
118,29.625,0.125,0.125,5.157035895077605,-0.0018491090690531925,-0.0012434516449784105
119,29.875,0.125,0.125,5.156701760456313,-0.001372083144413346,-0.0009222708136464863
120,30.125,0.125,0.125,5.1565811986694055,-0.000957187991063715,-0.0006429926812585585
121,30.375,0.125,0.125,5.156385957612361,-0.0006224494837089142,-0.00041801051008438783
122,30.625,0.125,0.125,5.15637715004316,-0.0003636514406895381,-0.00024418239356860383
123,30.875,0.125,0.125,5.156268066905006,-0.00017182093522672028,-0.00011537081535850646
124,31.125,0.125,0.125,5.15632291347624,-5.545994147960625e-05,-3.6935081685784965e-05
125,31.375,0.125,0.125,5.156252293124189,2.5229764641080527e-05,2.0799585175756974e-05
126,31.625,0.125,0.125,5.1563352370827955,4.941478455209385e-05,4.371333465535976e-05
127,31.875,0.125,0.125,5.156275321745375,9.033443976325215e-05,9.689183158179127e-05
